sat
(
(define-fun p () Bool false)
(define-fun estaEnClique1 () Bool false)
(define-fun estaEnClique2 () Bool true)
(define-fun estaEnClique3 () Bool false)
(define-fun estaEnClique4 () Bool false)
(define-fun estaEnClique5 () Bool true)
(define-fun estaEnClique6 () Bool true)
(define-fun estaEnClique7 () Bool true)
(define-fun estaEnClique8 () Bool false)
)